certificates/rado_a9_c106_N17.cnf
c Rad2 upper bound instance: x1 + 9*x2 - x3 = 106, interval [1,17]
p cnf 17 64
1 3 12 0
-1 -3 -12 0
1 12 13 0
-1 -12 -13 0
2 4 12 0
-2 -4 -12 0
2 13 0
-2 -13 0
3 5 12 0
-3 -5 -12 0
3 13 14 0
-3 -13 -14 0
4 6 12 0
-4 -6 -12 0
4 13 15 0
-4 -13 -15 0
5 7 12 0
-5 -7 -12 0
5 13 16 0
-5 -13 -16 0
6 8 12 0
-6 -8 -12 0
6 13 17 0
-6 -13 -17 0
7 9 12 0
-7 -9 -12 0
1 8 11 0
-1 -8 -11 0
8 10 12 0
-8 -10 -12 0
2 9 11 0
-2 -9 -11 0
9 11 12 0
-9 -11 -12 0
3 10 11 0
-3 -10 -11 0
10 12 0
-10 -12 0
4 11 0
-4 -11 0
11 12 13 0
-11 -12 -13 0
5 11 12 0
-5 -11 -12 0
12 14 0
-12 -14 0
6 11 13 0
-6 -11 -13 0
12 13 15 0
-12 -13 -15 0
7 11 14 0
-7 -11 -14 0
12 14 16 0
-12 -14 -16 0
8 11 15 0
-8 -11 -15 0
12 15 17 0
-12 -15 -17 0
9 11 16 0
-9 -11 -16 0
1 10 17 0
-1 -10 -17 0
10 11 17 0
-10 -11 -17 0
