certificates/rado_a9_c106_N17.drat
12 -16 -17 0
-13 -12 0
-12 -17 0
d -12 -15 -17 0
-17 0
-13 0
2 0
6 0
12 0
-10 0
-14 0
-4 0
-8 0
1 0
11 0
3 0
15 0
0
